45 507 5
0 3 1
0 4 1
0 5 1
0 6 1
0 7 1
0 8 1
0 11 1
0 16 1
0 19 1
0 22 1
0 24 1
0 25 1
0 26 1
0 28 1
0 29 1
0 32 1
0 33 1
0 34 1
0 35 1
0 39 1
1 2 1
1 5 1
1 10 1
1 11 1
1 13 1
1 16 1
1 18 1
1 23 1
1 29 1
1 30 1
1 31 1
1 32 1
1 33 1
1 38 1
1 41 1
1 42 1
2 4 1
2 7 1
2 8 1
2 9 1
2 13 1
2 21 1
2 23 1
2 24 1
2 30 1
2 32 1
2 33 1
2 35 1
2 36 1
2 37 1
2 38 1
2 39 1
2 41 1
2 42 1
3 4 1
3 5 1
3 6 1
3 9 1
3 10 1
3 12 1
3 13 1
3 14 1
3 15 1
3 17 1
3 18 1
3 21 1
3 22 1
3 25 1
3 28 1
3 31 1
3 33 1
3 36 1
3 39 1
3 40 1
3 41 1
3 42 1
3 43 1
3 44 1
4 5 1
4 6 1
4 7 1
4 12 1
4 13 1
4 14 1
4 16 1
4 17 1
4 18 1
4 22 1
4 24 1
4 28 1
4 32 1
4 35 1
4 36 1
4 38 1
4 39 1
4 40 1
4 43 1
5 6 1
5 7 1
5 8 1
5 10 1
5 13 1
5 14 1
5 16 1
5 17 1
5 19 1
5 20 1
5 23 1
5 25 1
5 27 1
5 28 1
5 31 1
5 38 1
5 39 1
5 40 1
5 43 1
5 44 1
6 11 1
6 13 1
6 15 1
6 20 1
6 21 1
6 23 1
6 24 1
6 26 1
6 27 1
6 30 1
6 31 1
6 35 1
6 36 1
6 37 1
6 38 1
6 39 1
6 42 1
6 43 1
6 44 1
7 10 1
7 11 1
7 12 1
7 13 1
7 15 1
7 16 1
7 17 1
7 19 1
7 20 1
7 22 1
7 23 1
7 26 1
7 28 1
7 29 1
7 30 1
7 34 1
7 35 1
7 36 1
7 39 1
7 41 1
7 43 1
7 44 1
8 9 1
8 10 1
8 14 1
8 15 1
8 16 1
8 19 1
8 21 1
8 22 1
8 29 1
8 30 1
8 34 1
8 35 1
8 37 1
8 38 1
8 39 1
8 42 1
8 44 1
9 10 1
9 12 1
9 13 1
9 15 1
9 18 1
9 19 1
9 21 1
9 22 1
9 28 1
9 29 1
9 30 1
9 31 1
9 33 1
9 36 1
9 37 1
9 38 1
9 40 1
9 41 1
9 44 1
10 12 1
10 13 1
10 14 1
10 16 1
10 17 1
10 18 1
10 22 1
10 23 1
10 24 1
10 26 1
10 27 1
10 34 1
10 35 1
10 37 1
10 40 1
10 43 1
10 44 1
11 12 1
11 13 1
11 14 1
11 16 1
11 19 1
11 21 1
11 24 1
11 25 1
11 28 1
11 32 1
11 34 1
11 35 1
11 37 1
11 38 1
11 39 1
12 15 1
12 16 1
12 17 1
12 19 1
12 22 1
12 23 1
12 24 1
12 25 1
12 27 1
12 30 1
12 32 1
12 36 1
12 38 1
12 39 1
12 40 1
12 44 1
13 15 1
13 18 1
13 19 1
13 20 1
13 22 1
13 24 1
13 25 1
13 26 1
13 28 1
13 30 1
13 32 1
13 33 1
13 34 1
13 36 1
13 38 1
13 39 1
13 40 1
13 42 1
13 44 1
14 16 1
14 17 1
14 18 1
14 21 1
14 22 1
14 23 1
14 24 1
14 26 1
14 28 1
14 32 1
14 33 1
14 34 1
14 35 1
14 39 1
14 41 1
14 42 1
14 43 1
15 18 1
15 20 1
15 21 1
15 22 1
15 23 1
15 24 1
15 28 1
15 30 1
15 32 1
15 34 1
15 35 1
15 38 1
15 39 1
16 19 1
16 20 1
16 21 1
16 24 1
16 26 1
16 32 1
16 34 1
16 35 1
16 37 1
16 40 1
16 42 1
17 18 1
17 20 1
17 21 1
17 22 1
17 23 1
17 25 1
17 32 1
17 33 1
17 34 1
17 38 1
17 39 1
17 40 1
17 42 1
17 43 1
18 23 1
18 25 1
18 26 1
18 28 1
18 29 1
18 30 1
18 32 1
18 33 1
18 36 1
18 37 1
18 40 1
18 42 1
18 43 1
18 44 1
19 20 1
19 21 1
19 24 1
19 28 1
19 29 1
19 31 1
19 32 1
19 35 1
19 38 1
19 39 1
19 40 1
19 41 1
19 42 1
19 44 1
20 22 1
20 25 1
20 26 1
20 31 1
20 33 1
20 34 1
20 35 1
20 36 1
20 41 1
20 44 1
21 24 1
21 26 1
21 27 1
21 28 1
21 29 1
21 33 1
21 34 1
21 35 1
21 38 1
21 39 1
21 41 1
21 42 1
21 44 1
22 23 1
22 24 1
22 30 1
22 33 1
22 34 1
22 40 1
22 41 1
22 44 1
23 24 1
23 25 1
23 27 1
23 29 1
23 30 1
23 31 1
23 32 1
23 33 1
23 34 1
23 35 1
23 36 1
23 37 1
23 38 1
23 39 1
23 40 1
23 41 1
23 43 1
23 44 1
24 25 1
24 26 1
24 27 1
24 31 1
24 32 1
24 34 1
24 36 1
24 40 1
24 41 1
24 42 1
24 44 1
25 28 1
25 31 1
25 32 1
25 34 1
25 35 1
25 36 1
25 40 1
26 27 1
26 29 1
26 31 1
26 33 1
26 34 1
26 38 1
26 40 1
26 42 1
26 44 1
27 31 1
27 33 1
27 34 1
27 38 1
27 39 1
27 41 1
27 42 1
28 29 1
28 30 1
28 31 1
28 32 1
28 33 1
28 35 1
28 36 1
28 40 1
28 41 1
29 31 1
29 32 1
29 35 1
29 36 1
29 37 1
29 38 1
29 39 1
29 40 1
29 42 1
30 32 1
30 35 1
30 38 1
30 39 1
30 42 1
30 43 1
31 32 1
31 33 1
31 35 1
31 36 1
31 38 1
31 39 1
31 42 1
31 43 1
32 34 1
32 35 1
32 36 1
32 37 1
32 38 1
32 39 1
32 40 1
32 42 1
32 43 1
33 34 1
33 37 1
33 38 1
33 42 1
34 35 1
34 36 1
34 38 1
34 39 1
34 41 1
34 42 1
34 44 1
35 36 1
35 38 1
35 39 1
35 41 1
35 42 1
35 43 1
35 44 1
36 38 1
36 39 1
36 40 1
36 42 1
36 44 1
37 39 1
37 40 1
37 42 1
37 43 1
38 40 1
38 41 1
38 42 1
39 40 1
39 44 1
40 42 1
40 43 1
40 44 1
41 42 1
41 43 1
41 44 1
42 43 1
5 23 33 39 41